(benchmark random_random8_smt
:extrafuns ((x0 BitVec[24]))
:extrafuns ((x1 BitVec[24]))
:extrafuns ((x2 BitVec[24]))
:extrafuns ((x3 BitVec[24]))
:extrafuns ((x4 BitVec[24]))
:extrafuns ((x5 BitVec[24]))
:extrafuns ((x6 BitVec[24]))
:extrafuns ((x7 BitVec[24]))
:extrafuns ((x8 BitVec[24]))
:extrafuns ((x9 BitVec[24]))
:extrafuns ((x10 BitVec[24]))
:extrafuns ((x11 BitVec[24]))
:extrafuns ((x12 BitVec[24]))
:extrafuns ((x13 BitVec[24]))
:extrafuns ((x14 BitVec[24]))
:extrafuns ((x15 BitVec[24]))
:extrafuns ((x16 BitVec[24]))
:extrafuns ((x17 BitVec[24]))
:extrafuns ((x18 BitVec[24]))
:extrafuns ((x19 BitVec[24]))


:formula (and (not (= (bvadd (bvmul bv7039176[24] x0) 
                        (bvadd (bvmul bv13387987[24] x2) 
                        (bvadd (bvmul bv11328739[24] x3) 
                        (bvadd (bvmul bv13392958[24] x6) 
                        (bvadd (bvmul bv8741271[24] x7) 
                        (bvadd (bvmul bv10131194[24] x9) 
                        (bvadd (bvmul bv1109835[24] x10) 
                        (bvadd (bvmul bv8846346[24] x11) 
                        (bvadd (bvmul bv2067866[24] x16) (bvmul bv837627[24] x18))))))))))
	              bv13104066[24]))
         (and (not (= (bvadd (bvmul bv13021669[24] x0) 
                        (bvadd (bvmul bv15888595[24] x3) 
                        (bvadd (bvmul bv13483180[24] x4) 
                        (bvadd (bvmul bv10098924[24] x6) 
                        (bvadd (bvmul bv664568[24] x7) 
                        (bvadd (bvmul bv8850700[24] x8) 
                        (bvadd (bvmul bv9475842[24] x9) 
                        (bvadd (bvmul bv8167271[24] x10) 
                        (bvadd (bvmul bv12212540[24] x12) 
                        (bvadd (bvmul bv7228576[24] x15) (bvmul bv4173680[24] x19)))))))))))
	              bv613113[24]))
         (and (not (= (bvadd (bvmul bv14671421[24] x5) 
                        (bvadd (bvmul bv1276024[24] x12) 
                        (bvadd (bvmul bv4745898[24] x13) 
                        (bvadd (bvmul bv16444730[24] x14) (bvmul bv12056801[24] x19)))))
	              bv10596935[24]))
         (and (not (= (bvadd (bvmul bv3958905[24] x3) 
                        (bvadd (bvmul bv15931924[24] x4) 
                        (bvadd (bvmul bv5481167[24] x6) 
                        (bvadd (bvmul bv13696282[24] x8) 
                        (bvadd (bvmul bv4539655[24] x9) 
                        (bvadd (bvmul bv901464[24] x10) 
                        (bvadd (bvmul bv11193522[24] x11) 
                        (bvadd (bvmul bv11620786[24] x14) 
                        (bvadd (bvmul bv12581851[24] x17) (bvmul bv7861438[24] x19))))))))))
	              bv16579070[24]))
         (and (not (= (bvadd (bvmul bv5710135[24] x1) 
                        (bvadd (bvmul bv15166135[24] x2) 
                        (bvadd (bvmul bv4324818[24] x4) 
                        (bvadd (bvmul bv8153113[24] x6) 
                        (bvadd (bvmul bv11233488[24] x7) 
                        (bvadd (bvmul bv2698566[24] x10) 
                        (bvadd (bvmul bv5280739[24] x11) 
                        (bvadd (bvmul bv11938804[24] x15) 
                        (bvadd (bvmul bv7743440[24] x17) 
                        (bvadd (bvmul bv12637566[24] x18) (bvmul bv11718201[24] x19)))))))))))
	              bv13599264[24]))
         (and (not (= (bvadd (bvmul bv651121[24] x0) 
                        (bvadd (bvmul bv3825334[24] x2) 
                        (bvadd (bvmul bv12748633[24] x3) 
                        (bvadd (bvmul bv4124531[24] x5) 
                        (bvadd (bvmul bv3036701[24] x11) 
                        (bvadd (bvmul bv7221879[24] x13) 
                        (bvadd (bvmul bv13215883[24] x14) 
                        (bvadd (bvmul bv10126909[24] x17) 
                        (bvadd (bvmul bv8518055[24] x18) (bvmul bv7152557[24] x19))))))))))
	              bv5340104[24]))
         (and (not (= (bvadd (bvmul bv10636068[24] x2) 
                        (bvadd (bvmul bv10397329[24] x3) 
                        (bvadd (bvmul bv4528587[24] x7) 
                        (bvadd (bvmul bv16653651[24] x8) 
                        (bvadd (bvmul bv15233033[24] x9) 
                        (bvadd (bvmul bv14502923[24] x10) 
                        (bvadd (bvmul bv1654344[24] x14) 
                        (bvadd (bvmul bv14312048[24] x16) 
                        (bvadd (bvmul bv6052889[24] x18) (bvmul bv2394249[24] x19))))))))))
	              bv11392994[24]))
         (and (not (= (bvadd (bvmul bv10197928[24] x0) 
                        (bvadd (bvmul bv5553391[24] x5) 
                        (bvadd (bvmul bv3609032[24] x8) 
                        (bvadd (bvmul bv2496695[24] x12) (bvmul bv6535401[24] x18)))))
	              bv15456093[24]))
         (and (not (= (bvadd (bvmul bv9394578[24] x6) 
                        (bvadd (bvmul bv2641782[24] x7) 
                        (bvadd (bvmul bv4627704[24] x8) 
                        (bvadd (bvmul bv10896425[24] x10) 
                        (bvadd (bvmul bv8767622[24] x16) 
                        (bvadd (bvmul bv1209201[24] x17) (bvmul bv2102395[24] x18)))))))
	              bv14210033[24]))
         (and (not (= (bvadd (bvmul bv8213233[24] x0) 
                        (bvadd (bvmul bv10414890[24] x1) 
                        (bvadd (bvmul bv4425901[24] x2) 
                        (bvadd (bvmul bv2696442[24] x3) 
                        (bvadd (bvmul bv12091021[24] x5) 
                        (bvadd (bvmul bv4784975[24] x7) 
                        (bvadd (bvmul bv7737970[24] x11) 
                        (bvadd (bvmul bv14008896[24] x13) 
                        (bvadd (bvmul bv14041701[24] x14) 
                        (bvadd (bvmul bv5433995[24] x17) (bvmul bv4417488[24] x18)))))))))))
	              bv1190335[24]))
         (and (not (= (bvadd (bvmul bv15755725[24] x0) 
                        (bvadd (bvmul bv12389062[24] x1) 
                        (bvadd (bvmul bv15085505[24] x3) 
                        (bvadd (bvmul bv4815316[24] x4) 
                        (bvadd (bvmul bv11339139[24] x5) 
                        (bvadd (bvmul bv16091100[24] x7) 
                        (bvadd (bvmul bv2453759[24] x8) 
                        (bvadd (bvmul bv56960[24] x9) 
                        (bvadd (bvmul bv14097812[24] x10) 
                        (bvadd (bvmul bv4447003[24] x11) 
                        (bvadd (bvmul bv3287947[24] x12) 
                        (bvadd (bvmul bv9835986[24] x13) 
                        (bvadd (bvmul bv4226900[24] x14) 
                        (bvadd (bvmul bv11588756[24] x15) (bvmul bv10567266[24] x17)))))))))))))))
	              bv13971679[24]))
         (and (not (= (bvadd (bvmul bv4027119[24] x0) 
                        (bvadd (bvmul bv14474805[24] x1) 
                        (bvadd (bvmul bv2971270[24] x2) 
                        (bvadd (bvmul bv2285156[24] x4) 
                        (bvadd (bvmul bv15287262[24] x5) 
                        (bvadd (bvmul bv7881238[24] x7) 
                        (bvadd (bvmul bv6997573[24] x8) 
                        (bvadd (bvmul bv9153108[24] x9) 
                        (bvadd (bvmul bv7225388[24] x10) 
                        (bvadd (bvmul bv16465354[24] x13) 
                        (bvadd (bvmul bv92309[24] x14) 
                        (bvadd (bvmul bv7609055[24] x15) 
                        (bvadd (bvmul bv4803519[24] x17) 
                        (bvadd (bvmul bv2763853[24] x18) (bvmul bv7694634[24] x19)))))))))))))))
	              bv413069[24]))
         (and (not (= (bvadd (bvmul bv8250398[24] x0) 
                        (bvadd (bvmul bv1692078[24] x1) 
                        (bvadd (bvmul bv2162291[24] x3) 
                        (bvadd (bvmul bv2860642[24] x4) 
                        (bvadd (bvmul bv1054441[24] x5) 
                        (bvadd (bvmul bv9106210[24] x6) 
                        (bvadd (bvmul bv5637058[24] x7) 
                        (bvadd (bvmul bv13570210[24] x8) 
                        (bvadd (bvmul bv10611999[24] x10) (bvmul bv5524723[24] x17))))))))))
	              bv5937792[24]))
         (and (bvule      (bvadd (bvmul bv2407149[24] x1) 
                        (bvadd (bvmul bv14163768[24] x3) 
                        (bvadd (bvmul bv15003617[24] x9) 
                        (bvadd (bvmul bv14276279[24] x12) 
                        (bvadd (bvmul bv5754495[24] x18) (bvmul bv15802263[24] x19))))))
	              bv16493535[24])
         (and (bvule      (bvadd (bvmul bv1708060[24] x0) 
                        (bvadd (bvmul bv7650963[24] x4) 
                        (bvadd (bvmul bv10623316[24] x8) 
                        (bvadd (bvmul bv3943577[24] x11) 
                        (bvadd (bvmul bv14971771[24] x15) (bvmul bv14188910[24] x16))))))
	              bv15860523[24])
         (and (bvule      (bvadd (bvmul bv14885572[24] x1) 
                        (bvadd (bvmul bv16593632[24] x3) 
                        (bvadd (bvmul bv11194421[24] x8) 
                        (bvadd (bvmul bv7941519[24] x10) 
                        (bvadd (bvmul bv1798820[24] x13) 
                        (bvadd (bvmul bv11456934[24] x14) (bvmul bv2506816[24] x19)))))))
	              bv6994489[24])
         (and (bvule      (bvadd (bvmul bv7716154[24] x0) 
                        (bvadd (bvmul bv5003447[24] x5) 
                        (bvadd (bvmul bv7616986[24] x8) 
                        (bvadd (bvmul bv2409877[24] x12) 
                        (bvadd (bvmul bv14037260[24] x13) 
                        (bvadd (bvmul bv15826354[24] x16) 
                        (bvadd (bvmul bv1553179[24] x17) (bvmul bv3559364[24] x18))))))))
	              bv12181320[24])
         (and (bvule      (bvadd (bvmul bv9476814[24] x1) 
                        (bvadd (bvmul bv15314336[24] x2) 
                        (bvadd (bvmul bv3711910[24] x3) 
                        (bvadd (bvmul bv6725851[24] x6) 
                        (bvadd (bvmul bv482063[24] x7) 
                        (bvadd (bvmul bv13619180[24] x8) 
                        (bvadd (bvmul bv9069828[24] x10) 
                        (bvadd (bvmul bv6329873[24] x12) 
                        (bvadd (bvmul bv13360051[24] x13) 
                        (bvadd (bvmul bv11824294[24] x15) 
                        (bvadd (bvmul bv15383658[24] x17) (bvmul bv6641106[24] x18))))))))))))
	              bv1643291[24])
         (and (bvule      (bvadd (bvmul bv1677744[24] x0) 
                        (bvadd (bvmul bv5389654[24] x2) 
                        (bvadd (bvmul bv9629543[24] x5) 
                        (bvadd (bvmul bv14587076[24] x6) 
                        (bvadd (bvmul bv1250065[24] x8) 
                        (bvadd (bvmul bv8511110[24] x12) 
                        (bvadd (bvmul bv13899850[24] x14) 
                        (bvadd (bvmul bv8000426[24] x15) 
                        (bvadd (bvmul bv6606869[24] x17) 
                        (bvadd (bvmul bv16465782[24] x18) (bvmul bv14891815[24] x19)))))))))))
	              bv15806488[24])
         (and (bvule      (bvadd (bvmul bv15072229[24] x0) 
                        (bvadd (bvmul bv1569677[24] x1) 
                        (bvadd (bvmul bv15674690[24] x3) 
                        (bvadd (bvmul bv11941107[24] x4) 
                        (bvadd (bvmul bv1246199[24] x5) 
                        (bvadd (bvmul bv8041181[24] x7) 
                        (bvadd (bvmul bv8376893[24] x11) 
                        (bvadd (bvmul bv6964569[24] x13) 
                        (bvadd (bvmul bv154839[24] x14) 
                        (bvadd (bvmul bv16477813[24] x17) 
                        (bvadd (bvmul bv11517963[24] x18) (bvmul bv9100205[24] x19))))))))))))
	              bv9812977[24])
         (and (bvule      (bvadd (bvmul bv10669882[24] x0) 
                        (bvadd (bvmul bv9603942[24] x1) 
                        (bvadd (bvmul bv5062716[24] x2) 
                        (bvadd (bvmul bv4232098[24] x6) 
                        (bvadd (bvmul bv276889[24] x7) 
                        (bvadd (bvmul bv5207360[24] x8) 
                        (bvadd (bvmul bv889327[24] x9) 
                        (bvadd (bvmul bv12112038[24] x10) 
                        (bvadd (bvmul bv7865927[24] x13) 
                        (bvadd (bvmul bv7566526[24] x15) (bvmul bv13446751[24] x19)))))))))))
	              bv228676[24])
         (and (bvule      (bvadd (bvmul bv14395677[24] x2) 
                        (bvadd (bvmul bv14600453[24] x3) 
                        (bvadd (bvmul bv7920479[24] x8) 
                        (bvadd (bvmul bv2499840[24] x13) 
                        (bvadd (bvmul bv1348426[24] x14) 
                        (bvadd (bvmul bv469628[24] x15) (bvmul bv10516303[24] x19)))))))
	              bv14332554[24])
         (and (bvule      (bvadd (bvmul bv7863111[24] x2) 
                        (bvadd (bvmul bv7616635[24] x3) 
                        (bvadd (bvmul bv5439874[24] x5) 
                        (bvadd (bvmul bv13109418[24] x6) 
                        (bvadd (bvmul bv722773[24] x7) 
                        (bvadd (bvmul bv4226728[24] x8) 
                        (bvadd (bvmul bv2887484[24] x11) 
                        (bvadd (bvmul bv13891586[24] x12) 
                        (bvadd (bvmul bv16658882[24] x13) 
                        (bvadd (bvmul bv12738028[24] x14) (bvmul bv12502707[24] x18)))))))))))
	              bv2056504[24])
         (and (bvule      (bvadd (bvmul bv9919615[24] x1) 
                        (bvadd (bvmul bv11834957[24] x4) 
                        (bvadd (bvmul bv7998707[24] x5) 
                        (bvadd (bvmul bv8721480[24] x7) 
                        (bvadd (bvmul bv10081945[24] x9) 
                        (bvadd (bvmul bv4117731[24] x12) 
                        (bvadd (bvmul bv3999399[24] x14) 
                        (bvadd (bvmul bv4421429[24] x15) 
                        (bvadd (bvmul bv1744994[24] x16) 
                        (bvadd (bvmul bv9943685[24] x17) 
                        (bvadd (bvmul bv9970706[24] x18) (bvmul bv381820[24] x19))))))))))))
	              bv9307031[24])
         (and (bvule      (bvadd (bvmul bv3766565[24] x2) 
                        (bvadd (bvmul bv11875610[24] x3) 
                        (bvadd (bvmul bv4607900[24] x4) 
                        (bvadd (bvmul bv16723291[24] x7) 
                        (bvadd (bvmul bv14540275[24] x8) 
                        (bvadd (bvmul bv1880792[24] x10) 
                        (bvadd (bvmul bv1667099[24] x11) 
                        (bvadd (bvmul bv6088528[24] x13) 
                        (bvadd (bvmul bv14506926[24] x15) 
                        (bvadd (bvmul bv11115207[24] x16) (bvmul bv230235[24] x19)))))))))))
	              bv10334202[24])
         (and (bvule      (bvadd (bvmul bv16490226[24] x0) 
                        (bvadd (bvmul bv9320764[24] x1) 
                        (bvadd (bvmul bv9088825[24] x2) 
                        (bvadd (bvmul bv15386102[24] x3) 
                        (bvadd (bvmul bv6107235[24] x4) 
                        (bvadd (bvmul bv9812632[24] x5) 
                        (bvadd (bvmul bv13305028[24] x12) 
                        (bvadd (bvmul bv11656232[24] x13) 
                        (bvadd (bvmul bv8504456[24] x14) 
                        (bvadd (bvmul bv10039265[24] x17) (bvmul bv16435109[24] x18)))))))))))
	              bv12110363[24])
         (and (=      (bvadd (bvmul bv919805[24] x0) 
                        (bvadd (bvmul bv10008630[24] x2) 
                        (bvadd (bvmul bv6029779[24] x4) 
                        (bvadd (bvmul bv11782896[24] x7) 
                        (bvadd (bvmul bv2084313[24] x8) 
                        (bvadd (bvmul bv6770529[24] x10) 
                        (bvadd (bvmul bv12097879[24] x11) 
                        (bvadd (bvmul bv12114723[24] x15) 
                        (bvadd (bvmul bv8700174[24] x16) 
                        (bvadd (bvmul bv8358069[24] x18) (bvmul bv4567209[24] x19)))))))))))
	              bv7728975[24])
         (and (=      (bvadd (bvmul bv9221123[24] x0) 
                        (bvadd (bvmul bv11479705[24] x3) 
                        (bvadd (bvmul bv2161871[24] x4) 
                        (bvadd (bvmul bv213418[24] x7) 
                        (bvadd (bvmul bv14701538[24] x8) 
                        (bvadd (bvmul bv296852[24] x9) 
                        (bvadd (bvmul bv11104149[24] x10) 
                        (bvadd (bvmul bv10337426[24] x13) 
                        (bvadd (bvmul bv9823855[24] x14) (bvmul bv10489539[24] x18))))))))))
	              bv1570215[24])
         (and (=      (bvadd (bvmul bv3481505[24] x1) 
                        (bvadd (bvmul bv14961210[24] x3) 
                        (bvadd (bvmul bv12480179[24] x4) 
                        (bvadd (bvmul bv1223284[24] x7) 
                        (bvadd (bvmul bv2213529[24] x13) 
                        (bvadd (bvmul bv12550955[24] x15) 
                        (bvadd (bvmul bv4200476[24] x16) 
                        (bvadd (bvmul bv16342909[24] x17) (bvmul bv10055234[24] x19)))))))))
	              bv13329091[24])
         (and (=      (bvadd (bvmul bv13660391[24] x0) 
                        (bvadd (bvmul bv13704301[24] x1) 
                        (bvadd (bvmul bv2718799[24] x4) 
                        (bvadd (bvmul bv10044242[24] x6) 
                        (bvadd (bvmul bv14121447[24] x7) 
                        (bvadd (bvmul bv2307540[24] x8) 
                        (bvadd (bvmul bv12044626[24] x9) 
                        (bvadd (bvmul bv14258155[24] x11) 
                        (bvadd (bvmul bv3373383[24] x14) 
                        (bvadd (bvmul bv16718602[24] x18) (bvmul bv10517643[24] x19)))))))))))
	              bv10164184[24])
         (and (=      (bvadd (bvmul bv6361340[24] x0) 
                        (bvadd (bvmul bv12523344[24] x2) 
                        (bvadd (bvmul bv14388313[24] x4) 
                        (bvadd (bvmul bv9475898[24] x5) 
                        (bvadd (bvmul bv12444749[24] x6) 
                        (bvadd (bvmul bv10018536[24] x8) 
                        (bvadd (bvmul bv14846094[24] x9) 
                        (bvadd (bvmul bv3393080[24] x11) 
                        (bvadd (bvmul bv14440960[24] x15) 
                        (bvadd (bvmul bv10106066[24] x16) (bvmul bv5922641[24] x17)))))))))))
	              bv15800130[24])
         (and (=      (bvadd (bvmul bv14860587[24] x0) 
                        (bvadd (bvmul bv5953965[24] x1) 
                        (bvadd (bvmul bv3565063[24] x3) 
                        (bvadd (bvmul bv4643325[24] x4) 
                        (bvadd (bvmul bv11053776[24] x5) 
                        (bvadd (bvmul bv11876834[24] x13) 
                        (bvadd (bvmul bv15571409[24] x14) 
                        (bvadd (bvmul bv1345984[24] x17) (bvmul bv5192479[24] x19)))))))))
	              bv12856295[24])
         (and (=      (bvadd (bvmul bv15400315[24] x0) 
                        (bvadd (bvmul bv9181064[24] x1) 
                        (bvadd (bvmul bv4348492[24] x3) 
                        (bvadd (bvmul bv8991817[24] x5) 
                        (bvadd (bvmul bv8406079[24] x9) 
                        (bvadd (bvmul bv10995899[24] x12) 
                        (bvadd (bvmul bv9949610[24] x13) 
                        (bvadd (bvmul bv16130288[24] x17) (bvmul bv13775452[24] x19)))))))))
	              bv7727993[24])
         (and (=      (bvadd (bvmul bv10443530[24] x0) 
                        (bvadd (bvmul bv1295319[24] x4) 
                        (bvadd (bvmul bv16187690[24] x7) 
                        (bvadd (bvmul bv16640309[24] x9) 
                        (bvadd (bvmul bv14891972[24] x16) (bvmul bv412714[24] x19))))))
	              bv40578[24])
         (and (=      (bvadd (bvmul bv9567792[24] x2) 
                        (bvadd (bvmul bv7482346[24] x3) 
                        (bvadd (bvmul bv2995718[24] x4) 
                        (bvadd (bvmul bv10069831[24] x5) 
                        (bvadd (bvmul bv15420777[24] x8) 
                        (bvadd (bvmul bv21954[24] x11) 
                        (bvadd (bvmul bv9072302[24] x16) 
                        (bvadd (bvmul bv7033775[24] x17) (bvmul bv14418428[24] x18)))))))))
	              bv15156316[24])
         (and (=      (bvadd (bvmul bv8177860[24] x0) 
                        (bvadd (bvmul bv11497823[24] x1) 
                        (bvadd (bvmul bv2202954[24] x3) 
                        (bvadd (bvmul bv12532682[24] x5) 
                        (bvadd (bvmul bv2055543[24] x6) 
                        (bvadd (bvmul bv5765633[24] x7) 
                        (bvadd (bvmul bv7698178[24] x9) 
                        (bvadd (bvmul bv13461882[24] x10) 
                        (bvadd (bvmul bv1782831[24] x11) 
                        (bvadd (bvmul bv10701849[24] x13) 
                        (bvadd (bvmul bv11447586[24] x14) 
                        (bvadd (bvmul bv9088800[24] x16) 
                        (bvadd (bvmul bv6770593[24] x18) (bvmul bv8160453[24] x19))))))))))))))
	              bv1491201[24])
         (and (=      (bvadd (bvmul bv2929240[24] x0) 
                        (bvadd (bvmul bv693745[24] x2) 
                        (bvadd (bvmul bv9955604[24] x3) 
                        (bvadd (bvmul bv15721238[24] x5) 
                        (bvadd (bvmul bv6642201[24] x7) 
                        (bvadd (bvmul bv14955987[24] x12) 
                        (bvadd (bvmul bv6618066[24] x13) 
                        (bvadd (bvmul bv14697661[24] x14) (bvmul bv8708538[24] x18)))))))))
	              bv1925480[24])
         (and (=      (bvadd (bvmul bv3579588[24] x0) 
                        (bvadd (bvmul bv3355252[24] x2) 
                        (bvadd (bvmul bv13310857[24] x4) 
                        (bvadd (bvmul bv12254880[24] x6) 
                        (bvadd (bvmul bv1913183[24] x7) 
                        (bvadd (bvmul bv7991254[24] x9) 
                        (bvadd (bvmul bv1414564[24] x11) 
                        (bvadd (bvmul bv8032630[24] x13) 
                        (bvadd (bvmul bv10920602[24] x14) 
                        (bvadd (bvmul bv12325052[24] x15) (bvmul bv2799652[24] x16)))))))))))
	              bv14456115[24])
         (and (=      (bvadd (bvmul bv11572796[24] x1) 
                        (bvadd (bvmul bv15128319[24] x2) 
                        (bvadd (bvmul bv10563319[24] x11) 
                        (bvadd (bvmul bv11977883[24] x13) 
                        (bvadd (bvmul bv3233298[24] x15) (bvmul bv13618025[24] x18))))))
	              bv15067576[24])
              (=      (bvadd (bvmul bv13734317[24] x3) 
                        (bvadd (bvmul bv10348884[24] x4) 
                        (bvadd (bvmul bv1710770[24] x6) 
                        (bvadd (bvmul bv818094[24] x7) 
                        (bvadd (bvmul bv2435887[24] x9) 
                        (bvadd (bvmul bv10615064[24] x13) 
                        (bvadd (bvmul bv10705704[24] x14) 
                        (bvadd (bvmul bv2813902[24] x17) 
                        (bvadd (bvmul bv9429712[24] x18) (bvmul bv15333542[24] x19))))))))))
	              bv7720074[24])
	 )))))))))))))))))))))))))))))))))))))))

)
